c Random Network
p max    10      20
n         1  s
n        10  t
a       3       2      34
a       4       3      26
a       8       5      11
a       6       7       5
a       6       9      48
a       4       9      27
a       2       7      40
a       3       6      20
a       6       5      50
a       5       3      32
a       2       3      43
a       9       4      11
a       6      10      22
a       3       4      24
a       6       4      18
a       4       1      47
a       7       6       3
a       4       6      38
a       1       5      50
a       5       7      34
